# Solution for model GasLib-40
# Objective value = 1.0624955378323985e+01
loadshed[innode_1] 0
loadshed[innode_2] 0
loadshed[innode_3] 0
loadshed[innode_4] 0
loadshed[innode_5] 0
loadshed[innode_6] 0
loadshed[innode_7] 0
loadshed[innode_8] 0
loadshed[source_1] -0.289816825261378
loadshed[source_2] 6.0815827272381773e-02
loadshed[source_3] 0.296209149734015
loadshed[sink_1] 0
loadshed[sink_2] 0
loadshed[sink_3] 0
loadshed[sink_4] 0
loadshed[sink_5] 0
loadshed[sink_6] 0
loadshed[sink_7] 0
loadshed[sink_8] 0
loadshed[sink_9] 0
loadshed[sink_10] 0
loadshed[sink_11] 0
loadshed[sink_12] 0.64967880020325
loadshed[sink_13] 0
loadshed[sink_14] 0
loadshed[sink_15] 0
loadshed[sink_16] 0
loadshed[sink_17] 0
loadshed[sink_18] 0
loadshed[sink_19] 0
loadshed[sink_20] 0
loadshed[sink_21] 0
loadshed[sink_22] 0
loadshed[sink_23] 0
loadshed[sink_24] 0
loadshed[sink_25] 0
loadshed[sink_26] 0
loadshed[sink_27] 0
loadshed[sink_28] 0
loadshed[sink_29] 0
flow[source_1,sink_3] 2.0390750018802271e+02
flow[innode_1,sink_16] 1.6354166666666970e+01
flow[innode_6,sink_13] 3.2166756506592566e+00
flow[sink_13,sink_14] -1.3137491016007411e+01
flow[sink_14,sink_10] -2.9491657682674258e+01
flow[sink_25,sink_26] 1.7582519635066760e+02
flow[sink_26,sink_9] 1.2183527177813737e+02
flow[sink_9,sink_18] 1.0548110511147070e+02
flow[sink_26,sink_4] 3.7635757905863571e+01
flow[sink_4,sink_20] 0
flow[sink_18,sink_6] 8.9126938444804026e+01
flow[sink_25,innode_8] -1.7119916685468635e+02
flow[sink_6,sink_7] 4.0064438444803727e+01
flow[sink_6,sink_22] 3.2708333333333641e+01
flow[sink_7,sink_24] 3.8437544621676018e+01
flow[sink_22,sink_1] 1.6354166666666970e+01
flow[sink_24,sink_21] 2.2083377955009350e+01
flow[sink_21,sink_12] 5.7292112883426833e+00
flow[sink_7,sink_5] -1.4727272843538898e+01
flow[sink_5,sink_17] -3.1081439510205655e+01
flow[sink_17,sink_4] -21.2815912391969
flow[sink_17,sink_8] -2.6154014937675203e+01
flow[sink_3,sink_23] 16.3541666666697
flow[sink_8,sink_20] -4.2508181604341871e+01
flow[sink_25,sink_20] 5.8862348271008642e+01
flow[sink_25,sink_15] -8.3059220084316465e+01
flow[sink_15,sink_29] -9.9413386750983136e+01
flow[sink_29,sink_28] 1.6354166666667879e+01
flow[sink_29,sink_2] 1.6354166666684250e+01
flow[sink_2,sink_15] 0
flow[sink_29,innode_7] -1.4847588675100158e+02
flow[innode_4,sink_19] 4.2800735414527175e+01
flow[sink_19,innode_3] 0
flow[innode_4,innode_5] 6.8461755601480789e+01
flow[sink_27,innode_5] -6.8461755601480789e+01
flow[sink_27,sink_19] 5.2107588934814125e+01
flow[sink_10,sink_11] 3.2708333333333641e+01
flow[sink_10,innode_2] -7.8554157682674344e+01
flow[sink_10,innode_3] 0
flow[innode_6,sink_25] -3.2166756506592566e+00
flow[sink_11,innode_1] 1.6354166666666970e+01
flow[sink_19,innode_2] 7.8554157682674344e+01
flow[source_3,innode_4] 1.1126249101600797e+02
flow[source_2,innode_7] 1.4847588675100158e+02
flow[sink_3,innode_8] 1.7119916685468635e+02
pressure[innode_1] 74.9756701710322
pressure[innode_2] 79.2792831514621
pressure[innode_3] 7.5127371478635752e+01
pressure[innode_4] 81.01325
pressure[innode_5] 8.0966158394497754e+01
pressure[innode_6] 7.3726679816904110e+01
pressure[innode_7] 81.01325
pressure[innode_8] 8.0331665122359908e+01
pressure[source_1] 81.01325
pressure[source_2] 81.01325
pressure[source_3] 81.01325
pressure[sink_1] 4.5753606026908436e+01
pressure[sink_2] 7.6627832184565136e+01
pressure[sink_3] 8.0331665122359908e+01
pressure[sink_4] 5.6558306828496946e+01
pressure[sink_5] 5.3429652004800062e+01
pressure[sink_6] 4.7854683637295807e+01
pressure[sink_7] 4.7304694396615979e+01
pressure[sink_8] 5.6731853515271233e+01
pressure[sink_9] 5.4051259030236196e+01
pressure[sink_10] 7.5127371478635752e+01
pressure[sink_11] 74.9756701710322
pressure[sink_12] 1.0132500000000002e+00
pressure[sink_13] 7.3708946821598460e+01
pressure[sink_14] 73.7324574808384
pressure[sink_15] 7.4129597969030655e+01
pressure[sink_16] 7.3954020336214526e+01
pressure[sink_17] 5.5744994585212780e+01
pressure[sink_18] 5.0234638259541313e+01
pressure[sink_19] 79.2792831514621
pressure[sink_20] 5.9694075969014470e+01
pressure[sink_21] 3.0520169373475259e+00
pressure[sink_22] 4.6817375169263443e+01
pressure[sink_23] 8.0166947110700121e+01
pressure[sink_24] 3.2965698302941209e+00
pressure[sink_25] 7.3726679816904110e+01
pressure[sink_26] 6.1343414494338255e+01
pressure[sink_27] 8.0398052326727623e+01
pressure[sink_28] 7.6746819409411614e+01
pressure[sink_29] 7.7042101683028790e+01
interdiction[source_1,sink_3] 0
interdiction[innode_1,sink_16] 0
interdiction[innode_6,sink_13] 0
interdiction[sink_13,sink_14] 0
interdiction[sink_14,sink_10] 0
interdiction[sink_25,sink_26] 0
interdiction[sink_26,sink_9] 0
interdiction[sink_9,sink_18] 0
interdiction[sink_26,sink_4] 0
interdiction[sink_4,sink_20] 1
interdiction[sink_18,sink_6] 0
interdiction[sink_25,innode_8] 0
interdiction[sink_6,sink_7] 0
interdiction[sink_6,sink_22] 0
interdiction[sink_7,sink_24] 0
interdiction[sink_22,sink_1] 0
interdiction[sink_24,sink_21] 0
interdiction[sink_21,sink_12] 0
interdiction[sink_7,sink_5] 0
interdiction[sink_5,sink_17] 0
interdiction[sink_17,sink_4] 0
interdiction[sink_17,sink_8] 0
interdiction[sink_3,sink_23] 0
interdiction[sink_8,sink_20] 0
interdiction[sink_25,sink_20] 0
interdiction[sink_25,sink_15] 0
interdiction[sink_15,sink_29] 0
interdiction[sink_29,sink_28] 0
interdiction[sink_29,sink_2] 0
interdiction[sink_2,sink_15] 1
interdiction[sink_29,innode_7] 0
interdiction[innode_4,sink_19] 0
interdiction[sink_19,innode_3] 1
interdiction[innode_4,innode_5] 0
interdiction[sink_27,innode_5] 0
interdiction[sink_27,sink_19] 0
interdiction[sink_10,sink_11] 0
interdiction[sink_10,innode_2] 0
interdiction[sink_10,innode_3] 0
interdiction[innode_6,sink_25] 0
interdiction[sink_11,innode_1] 0
interdiction[sink_19,innode_2] 0
interdiction[source_3,innode_4] 0
interdiction[source_2,innode_7] 0
interdiction[sink_3,innode_8] 0
WCcheckFlow[source_1,sink_3] 39
WCcheckFlow[innode_1,sink_16] 1
WCcheckFlow[innode_6,sink_13] 13
WCcheckFlow[sink_13,sink_14] 12
WCcheckFlow[sink_14,sink_10] 11
WCcheckFlow[sink_25,sink_26] 15
WCcheckFlow[sink_26,sink_9] 13
WCcheckFlow[sink_9,sink_18] 12
WCcheckFlow[sink_26,sink_4] 1
WCcheckFlow[sink_4,sink_20] 0
WCcheckFlow[sink_18,sink_6] 11
WCcheckFlow[sink_25,innode_8] -36
WCcheckFlow[sink_6,sink_7] 8
WCcheckFlow[sink_6,sink_22] 2
WCcheckFlow[sink_7,sink_24] 3
WCcheckFlow[sink_22,sink_1] 1
WCcheckFlow[sink_24,sink_21] 2
WCcheckFlow[sink_21,sink_12] 1
WCcheckFlow[sink_7,sink_5] 4
WCcheckFlow[sink_5,sink_17] 3
WCcheckFlow[sink_17,sink_4] 0
WCcheckFlow[sink_17,sink_8] 2
WCcheckFlow[sink_3,sink_23] 1
WCcheckFlow[sink_8,sink_20] 1
WCcheckFlow[sink_25,sink_20] 0
WCcheckFlow[sink_25,sink_15] 6
WCcheckFlow[sink_15,sink_29] 5
WCcheckFlow[sink_29,sink_28] 1
WCcheckFlow[sink_29,sink_2] 1
WCcheckFlow[sink_2,sink_15] 0
WCcheckFlow[sink_29,innode_7] 2
WCcheckFlow[innode_4,sink_19] -4
WCcheckFlow[sink_19,innode_3] 0
WCcheckFlow[innode_4,innode_5] 2
WCcheckFlow[sink_27,innode_5] -1
WCcheckFlow[sink_27,sink_19] 0
WCcheckFlow[sink_10,sink_11] 3
WCcheckFlow[sink_10,innode_2] 6
WCcheckFlow[sink_10,innode_3] 1
WCcheckFlow[innode_6,sink_25] -14
WCcheckFlow[sink_11,innode_1] 2
WCcheckFlow[sink_19,innode_2] -5
WCcheckFlow[source_3,innode_4] -1
WCcheckFlow[source_2,innode_7] -1
WCcheckFlow[sink_3,innode_8] 37
